data;
param nombreJob := 6;
param nombreRessource := 3;
param duree := 1 10 2 1 3 4 4 9 5 3 6 2;
param capaciteRessource := 1 7 2 13 3 11;
param besoinRessource : 1 2 3 :=
                    1   3 4 5
                    2   1 3 8
                    3   1 6 6
                    4   4 3 6
                    5   3 7 6
                    6   3 1 5;
end;

